\ENCODING=ISO-8859-1
\Problem name: 

Maximize
 obj: x1 + x2 + x3 + x4 + x5 + x6 + x7 + x8 + x9 + x10 + x11 + x12 + x13 + x14
      + x15 + x16 + x17 + x18 + x19 + x20 + x21 + x22 + x23 + x24 + x25 + x26
      + x27 + x28 + x29 + x30 + x31 + x32 + x33 + x34 + x35 + x36 + x37 + x38
      + x39 + x40 + x41 + x42 + x43 + x44 + x45 + x46 + x47 + x48 + x49 + x50
      + x51 + x52 + x53 + x54 + x55 + x56 + x57 + x58 + x59 + x60 + x61 + x62
      + x63 + x64 + x65 + x66 + x67 + x68 + x69 + x70 + x71 + x72 + x73 + x74
      + x75 + x76 + x77 + x78 + x79 + x80 + x81 + x82 + x83 + x84 + x85 + x86
      + x87 + x88 + x89 + x90 + x91 + x92 + x93 + x94 + x95 + x96 + x97 + x98
      + x99 + x100 + x101 + x102 + x103 + x104 + x105 + x106 + x107 + x108
      + x109 + x110 + x111 + x112 + x113 + x114 + x115 + x116 + x117 + x118
      + x119 + x120 + x121 + x122 + x123 + x124 + x125 + x126 + x127 + x128
      + x129 + x130 + x131 + x132 + x133 + x134 + x135 + x136 + x137 + x138
      + x139 + x140 + x141 + x142 + x143 + x144 + x145 + x146 + x147 + x148
      + x149 + x150
Subject To
 clq1:   x7 + x77 <= 1
 clq2:   x43 + x135 <= 1
 clq3:   x6 + x28 <= 1
 clq4:   x50 + x122 <= 1
 clq5:   x108 + x144 + x146 <= 1
 clq6:   x29 + x44 <= 1
 clq7:   x21 + x80 + x81 <= 1
 clq8:   x61 + x111 + x129 <= 1
 clq9:   x77 + x79 + x119 + x150 <= 1
 clq10:  x40 + x60 <= 1
 clq11:  x66 + x98 + x113 <= 1
 clq12:  x135 + x139 <= 1
 clq13:  x59 + x106 + x148 <= 1
 clq14:  x38 + x56 + x117 + x149 <= 1
 clq15:  x100 + x106 + x121 <= 1
 clq16:  x34 + x55 + x87 + x103 <= 1
 clq17:  x37 + x125 + x126 <= 1
 clq18:  x82 + x105 + x120 <= 1
 clq19:  x132 + x136 <= 1
 clq20:  x56 + x101 <= 1
 clq21:  x52 + x111 + x129 <= 1
 clq22:  x91 + x99 + x144 <= 1
 clq23:  x92 + x137 + x148 <= 1
 clq24:  x56 + x60 + x124 <= 1
 clq25:  x123 + x132 <= 1
 clq26:  x20 + x41 + x57 <= 1
 clq27:  x67 + x80 <= 1
 clq28:  x58 + x132 + x137 <= 1
 clq29:  x53 + x101 + x119 <= 1
 clq30:  x35 + x123 <= 1
 clq31:  x40 + x51 + x149 <= 1
 clq32:  x30 + x133 <= 1
 clq33:  x17 + x45 + x77 <= 1
 clq34:  x8 + x39 + x110 <= 1
 clq35:  x83 + x118 + x130 <= 1
 clq36:  x49 + x82 + x106 <= 1
 clq37:  x99 + x103 <= 1
 clq38:  x54 + x138 <= 1
 clq39:  x58 + x92 + x143 <= 1
 clq40:  x61 + x69 <= 1
 clq41:  x74 + x107 + x110 <= 1
 clq42:  x5 + x137 + x148 <= 1
 clq43:  x3 + x23 + x90 <= 1
 clq44:  x16 + x69 + x104 <= 1
 clq45:  x30 + x92 + x143 <= 1
 clq46:  x100 + x105 + x139 <= 1
 clq47:  x76 + x120 + x142 <= 1
 clq48:  x24 + x55 <= 1
 clq49:  x2 + x58 + x64 <= 1
 clq50:  x51 + x86 + x92 <= 1
 clq51:  x35 + x75 + x97 <= 1
 clq52:  x52 + x105 + x111 <= 1
 clq53:  x81 + x129 + x132 <= 1
 clq54:  x15 + x43 <= 1
 clq55:  x84 + x98 + x123 <= 1
 clq56:  x35 + x70 <= 1
 clq57:  x35 + x59 + x88 <= 1
 clq58:  x25 + x62 + x99 <= 1
 clq59:  x100 + x129 <= 1
 clq60:  x57 + x104 + x120 <= 1
 clq61:  x13 + x74 + x122 <= 1
 clq62:  x30 + x40 + x69 <= 1
 clq63:  x56 + x132 <= 1
 clq64:  x100 + x120 + x149 <= 1
 clq65:  x57 + x138 <= 1
 clq66:  x30 + x40 + x67 <= 1
 clq67:  x13 + x76 + x140 <= 1
 clq68:  x36 + x62 <= 1
 clq69:  x28 + x71 + x88 <= 1
 clq70:  x8 + x130 <= 1
 clq71:  x4 + x100 <= 1
 clq72:  x67 + x94 <= 1
 clq73:  x17 + x77 + x140 <= 1
 clq74:  x89 + x116 <= 1
 clq75:  x11 + x149 <= 1
 clq76:  x11 + x52 + x129 <= 1
 clq77:  x103 + x132 <= 1
 clq78:  x1 + x83 + x120 <= 1
 clq79:  x43 + x83 <= 1
 clq80:  x16 + x77 + x118 <= 1
 clq81:  x46 + x47 + x85 <= 1
 clq82:  x29 + x55 <= 1
 clq83:  x3 + x62 + x63 <= 1
 clq84:  x95 + x126 <= 1
 clq85:  x64 + x99 + x135 <= 1
 clq86:  x40 + x74 + x93 <= 1
 clq87:  x49 + x120 + x130 <= 1
 clq88:  x91 + x129 <= 1
 clq89:  x3 + x77 <= 1
 clq90:  x9 + x150 <= 1
 clq91:  x2 + x5 + x8 <= 1
 clq92:  x21 + x31 + x73 <= 1
 clq93:  x5 + x13 + x122 <= 1
 clq94:  x71 + x150 <= 1
 clq95:  x60 + x100 + x120 <= 1
 clq96:  x26 + x52 <= 1
 clq97:  x51 + x136 <= 1
 clq98:  x39 + x70 + x90 <= 1
 clq99:  x69 + x83 + x109 <= 1
 clq100: x49 + x53 + x104 <= 1
 clq101: x7 + x103 <= 1
 clq102: x4 + x90 + x143 <= 1
 clq103: x35 + x59 + x75 <= 1
 clq104: x47 + x85 + x136 <= 1
 clq105: x128 + x142 <= 1
 clq106: x19 + x32 <= 1
 clq107: x34 + x88 <= 1
 clq108: x118 + x125 + x146 <= 1
 clq109: x70 + x96 + x108 <= 1
 clq110: x34 + x60 + x120 <= 1
 clq111: x83 + x97 + x118 <= 1
 clq112: x32 + x46 <= 1
 clq113: x68 + x142 <= 1
 clq114: x62 + x74 + x110 <= 1
 clq115: x41 + x88 + x109 <= 1
 clq116: x41 + x96 + x126 <= 1
 clq117: x34 + x111 + x131 <= 1
 clq118: x67 + x145 <= 1
 clq119: x65 + x96 <= 1
 clq120: x5 + x72 <= 1
 clq121: x51 + x105 + x130 <= 1
 clq122: x53 + x78 <= 1
 clq123: x47 + x85 + x102 <= 1
 clq124: x19 + x69 + x99 <= 1
 clq125: x53 + x103 <= 1
 clq126: x48 + x132 <= 1
 clq127: x10 + x41 + x88 <= 1
 clq128: x39 + x146 <= 1
 clq129: x7 + x123 + x149 <= 1
 clq130: x33 + x40 + x69 <= 1
 clq131: x14 + x78 + x113 <= 1
 clq132: x47 + x69 <= 1
 clq133: x11 + x105 + x130 <= 1
 clq134: x40 + x55 + x115 <= 1
 clq135: x35 + x67 <= 1
 clq136: x22 + x44 + x121 <= 1
 clq137: x63 + x123 + x143 <= 1
 clq138: x70 + x92 <= 1
 clq139: x35 + x53 + x119 <= 1
 clq140: x2 + x45 <= 1
 clq141: x26 + x49 + x104 <= 1
 clq142: x41 + x97 <= 1
 clq143: x66 + x135 <= 1
 clq144: x31 + x61 <= 1
 clq145: x34 + x136 <= 1
 clq146: x12 + x44 <= 1
 clq147: x4 + x81 <= 1
 clq148: x7 + x95 + x138 <= 1
 clq149: x18 + x66 + x69 <= 1
 clq150: x9 + x17 <= 1
 clq151: x45 + x50 <= 1
 clq152: x44 + x56 + x124 <= 1
 clq153: x40 + x93 + x116 <= 1
 clq154: x139 + x148 <= 1
 clq155: x37 + x133 <= 1
 clq156: x25 + x120 + x149 <= 1
 clq157: x11 + x112 + x138 <= 1
 clq158: x4 + x93 + x113 <= 1
 clq159: x63 + x93 <= 1
 clq160: x39 + x110 + x134 <= 1
 clq161: x9 + x68 <= 1
 clq162: x66 + x90 + x98 <= 1
 clq163: x23 + x76 <= 1
 clq164: x79 + x147 <= 1
 clq165: x55 + x122 <= 1
 clq166: x2 + x6 + x84 <= 1
 clq167: x5 + x83 + x125 <= 1
 clq168: x14 + x58 + x99 <= 1
 clq169: x47 + x78 + x115 <= 1
 clq170: x18 + x29 <= 1
 clq171: x131 + x137 <= 1
 clq172: x45 + x77 + x93 <= 1
 clq173: x135 + x145 <= 1
 clq174: x10 + x55 <= 1
 clq175: x44 + x52 + x56 <= 1
 clq176: x1 + x106 + x150 <= 1
 clq177: x38 + x133 <= 1
 clq178: x77 + x86 <= 1
 clq179: x42 + x72 <= 1
 clq180: x88 + x114 <= 1
 clq181: x51 + x102 <= 1
 clq182: x106 + x147 <= 1
 clq183: x8 + x138 <= 1
 clq184: x38 + x40 + x149 <= 1
 clq185: x66 + x76 <= 1
 clq186: x19 + x55 <= 1
 clq187: x60 + x77 + x118 <= 1
 clq188: x46 + x61 <= 1
 clq189: x26 + x61 + x90 <= 1
 clq190: x66 + x102 <= 1
 clq191: x28 + x108 + x113 <= 1
 clq192: x12 + x59 + x120 + x142 <= 1
 clq193: x68 + x99 <= 1
 clq194: x107 + x111 + x131 <= 1
 clq195: x20 + x51 + x142 <= 1
 clq196: x33 + x69 + x75 <= 1
 clq197: x49 + x130 + x140 <= 1
 clq198: x63 + x100 + x123 <= 1
 clq199: x58 + x92 + x137 <= 1
 clq200: x35 + x107 + x126 <= 1
 clq201: x59 + x111 <= 1
 clq202: x79 + x105 + x111 <= 1
 clq203: x18 + x60 <= 1
 clq204: x87 + x95 + x131 <= 1
 clq205: x41 + x44 + x126 <= 1
 clq206: x19 + x132 + x141 <= 1
 clq207: x19 + x112 <= 1
 clq208: x21 + x116 + x143 <= 1
 clq209: x11 + x29 + x65 <= 1
 clq210: x13 + x27 + x122 <= 1
 clq211: x11 + x70 <= 1
 clq212: x44 + x61 <= 1
 clq213: x16 + x96 + x102 <= 1
 clq214: x1 + x31 <= 1
 clq215: x106 + x136 + x148 <= 1
 clq216: x21 + x42 + x44 <= 1
 clq217: x76 + x92 <= 1
 clq218: x19 + x60 <= 1
 clq219: x43 + x75 <= 1
 clq220: x78 + x83 + x113 <= 1
 clq221: x11 + x98 <= 1
 clq222: x24 + x51 + x61 <= 1
 clq223: x123 + x143 + x149 <= 1
 clq224: x131 + x149 + x150 <= 1
 clq225: x50 + x63 + x87 + x131 <= 1
 clq226: x60 + x120 + x144 <= 1
 clq227: x30 + x92 + x137 <= 1
 clq228: x86 + x104 <= 1
 clq229: x28 + x37 <= 1
 clq230: x19 + x45 + x69 <= 1
 clq231: x7 + x10 + x138 <= 1
 clq232: x2 + x25 + x49 <= 1
 clq233: x27 + x94 + x98 <= 1
 clq234: x104 + x134 <= 1
 clq235: x4 + x84 <= 1
 clq236: x76 + x83 + x120 <= 1
 clq237: x23 + x135 <= 1
 clq238: x67 + x78 <= 1
 clq239: x48 + x134 <= 1
 clq240: x91 + x96 + x102 <= 1
 clq241: x25 + x60 + x120 <= 1
 clq242: x46 + x79 <= 1
 clq243: x9 + x91 + x107 <= 1
 clq244: x13 + x15 + x121 <= 1
 clq245: x23 + x89 + x90 <= 1
 clq246: x29 + x45 + x65 <= 1
 clq247: x101 + x135 <= 1
 clq248: x11 + x105 + x115 <= 1
 clq249: x93 + x147 <= 1
 clq250: x9 + x59 + x82 <= 1
 clq251: x100 + x106 + x133 <= 1
 clq252: x28 + x60 <= 1
 clq253: x24 + x77 <= 1
 clq254: x8 + x48 <= 1
 clq255: x33 + x120 + x132 <= 1
 clq256: x58 + x99 + x137 <= 1
 clq257: x84 + x94 + x98 <= 1
 clq258: x9 + x13 <= 1
 clq259: x83 + x107 + x131 <= 1
 clq260: x17 + x77 + x84 <= 1
 clq261: x34 + x90 + x139 <= 1
 clq262: x80 + x150 <= 1
 clq263: x97 + x134 <= 1
 clq264: x23 + x122 <= 1
 clq265: x83 + x107 + x120 <= 1
 clq266: x28 + x103 <= 1
 clq267: x72 + x118 + x146 <= 1
 clq268: x101 + x125 + x140 <= 1
 clq269: x45 + x67 <= 1
 clq270: x71 + x78 + x83 <= 1
 clq271: x16 + x121 <= 1
 clq272: x84 + x139 <= 1
 clq273: x113 + x133 <= 1
 clq274: x40 + x69 + x116 <= 1
 clq275: x10 + x43 <= 1
 clq276: x21 + x42 + x137 <= 1
 clq277: x30 + x34 + x111 + x129 <= 1
 clq278: x18 + x27 <= 1
 clq279: x34 + x118 + x131 <= 1
 clq280: x32 + x37 + x129 <= 1
 clq281: x21 + x44 + x80 <= 1
 clq282: x1 + x108 + x110 <= 1
 clq283: x19 + x26 + x104 <= 1
 clq284: x37 + x135 <= 1
 clq285: x61 + x64 + x135 <= 1
 clq286: x53 + x89 + x124 <= 1
 clq287: x3 + x116 <= 1
 clq288: x1 + x4 <= 1
 clq289: x38 + x46 + x56 <= 1
 clq290: x31 + x40 + x140 <= 1
 clq291: x87 + x117 <= 1
 clq292: x3 + x90 + x98 <= 1
 clq293: x23 + x71 <= 1
 clq294: x123 + x125 <= 1
 clq295: x49 + x106 + x135 <= 1
 clq296: x68 + x114 <= 1
 clq297: x14 + x73 + x146 <= 1
 clq298: x83 + x108 + x113 <= 1
 clq299: x141 + x146 <= 1
 clq300: x7 + x25 + x149 <= 1
 clq301: x2 + x113 <= 1
 clq302: x55 + x98 + x123 <= 1
 clq303: x116 + x150 <= 1
 clq304: x13 + x33 <= 1
 clq305: x21 + x36 + x66 <= 1
 clq306: x50 + x111 + x131 <= 1
 clq307: x7 + x20 + x76 + x83 <= 1
 clq308: x43 + x60 <= 1
 clq309: x64 + x71 <= 1
 clq310: x50 + x57 + x63 <= 1
 clq311: x47 + x77 + x119 <= 1
 clq312: x108 + x113 + x114 <= 1
 clq313: x12 + x35 + x36 <= 1
 clq314: x24 + x91 + x107 <= 1
 clq315: x49 + x106 + x143 <= 1
 clq316: x40 + x67 + x86 <= 1
 clq317: x100 + x119 + x121 <= 1
 clq318: x63 + x79 + x142 <= 1
 clq319: x91 + x102 + x107 <= 1
 clq320: x53 + x97 + x118 <= 1
 clq321: x25 + x50 <= 1
 clq322: x80 + x93 <= 1
 clq323: x9 + x48 <= 1
 clq324: x97 + x114 <= 1
 clq325: x27 + x36 <= 1
 clq326: x75 + x110 <= 1
 clq327: x33 + x102 <= 1
 clq328: x76 + x91 + x144 <= 1
 clq329: x13 + x64 <= 1
 clq330: x51 + x65 + x86 <= 1
 clq331: x65 + x123 <= 1
 clq332: x41 + x47 + x135 <= 1
 clq333: x42 + x135 <= 1
 clq334: x109 + x111 <= 1
 clq335: x27 + x31 + x40 <= 1
 clq336: x22 + x73 + x118 <= 1
 clq337: x58 + x81 + x108 <= 1
 clq338: x16 + x59 <= 1
 clq339: x39 + x88 + x122 <= 1
 clq340: x62 + x69 + x99 <= 1
 clq341: x39 + x43 <= 1
 clq342: x70 + x125 + x142 <= 1
 clq343: x35 + x115 + x126 <= 1
 clq344: x58 + x140 <= 1
 clq345: x27 + x118 + x144 <= 1
 clq346: x4 + x74 + x93 <= 1
 clq347: x21 + x80 + x137 <= 1
 clq348: x1 + x22 <= 1
 clq349: x23 + x45 + x90 <= 1
 clq350: x98 + x136 <= 1
 clq351: x30 + x40 + x129 <= 1
 clq352: x80 + x81 + x117 <= 1
 clq353: x41 + x58 + x150 <= 1
 clq354: x63 + x86 + x87 <= 1
 clq355: x6 + x25 + x99 <= 1
 clq356: x24 + x32 + x37 <= 1
 clq357: x4 + x18 + x90 <= 1
 clq358: x69 + x126 <= 1
 clq359: x52 + x99 + x111 <= 1
 clq360: x52 + x140 <= 1
 clq361: x7 + x20 + x137 <= 1
 clq362: x3 + x52 <= 1
 clq363: x99 + x115 <= 1
 clq364: x41 + x56 + x91 <= 1
 clq365: x117 + x140 <= 1
 clq366: x57 + x73 <= 1
 clq367: x8 + x20 + x85 <= 1
 clq368: x71 + x86 <= 1
 clq369: x31 + x71 <= 1
 clq370: x68 + x101 + x140 <= 1
 clq371: x34 + x55 + x80 + x103 <= 1
 clq372: x60 + x120 + x124 <= 1
 clq373: x10 + x18 <= 1
 clq374: x2 + x30 + x118 <= 1
 clq375: x7 + x27 + x98 <= 1
 clq376: x44 + x75 <= 1
 clq377: x2 + x64 + x119 <= 1
 clq378: x40 + x68 + x140 <= 1
 clq379: x83 + x104 + x125 <= 1
 clq380: x10 + x44 + x121 <= 1
 clq381: x94 + x111 <= 1
 clq382: x91 + x123 <= 1
 clq383: x2 + x5 + x89 <= 1
 clq384: x29 + x30 <= 1
 clq385: x84 + x142 <= 1
 clq386: x115 + x133 <= 1
 clq387: x37 + x78 <= 1
 clq388: x22 + x36 + x84 <= 1
 clq389: x26 + x37 <= 1
 clq390: x25 + x54 + x99 <= 1
 clq391: x95 + x127 <= 1
 clq392: x28 + x95 <= 1
 clq393: x17 + x18 <= 1
 clq394: x13 + x74 + x93 <= 1
 clq395: x33 + x69 + x114 <= 1
 clq396: x53 + x119 + x124 <= 1
 clq397: x49 + x82 + x110 <= 1
 clq398: x95 + x140 <= 1
 clq399: x12 + x110 + x117 <= 1
 clq400: x100 + x119 + x138 <= 1
 clq401: x6 + x33 + x40 <= 1
 clq402: x39 + x54 + x61 <= 1
 clq403: x101 + x128 <= 1
 clq404: x53 + x96 <= 1
 clq405: x67 + x106 <= 1
 clq406: x91 + x131 + x134 <= 1
 clq407: x1 + x5 + x83 + x108 <= 1
 clq408: x5 + x13 + x137 <= 1
 clq409: x9 + x32 + x117 <= 1
 clq410: x20 + x85 + x101 <= 1
 clq411: x25 + x55 + x80 <= 1
 clq412: x67 + x112 <= 1
 clq413: x25 + x62 + x149 <= 1
 clq414: x12 + x72 + x96 <= 1
 clq415: x28 + x42 <= 1
 clq416: x1 + x23 + x89 <= 1
 clq417: x46 + x86 + x87 <= 1
 clq418: x79 + x101 + x119 <= 1
 clq419: x26 + x79 + x119 <= 1
 clq420: x11 + x34 + x65 <= 1
 clq421: x74 + x95 <= 1
 clq422: x59 + x88 + x112 <= 1
 clq423: x8 + x20 + x109 <= 1
 clq424: x52 + x111 + x121 <= 1
 clq425: x13 + x57 <= 1
 clq426: x122 + x150 <= 1
 clq427: x69 + x100 <= 1
 clq428: x3 + x127 <= 1
 clq429: x9 + x26 + x127 <= 1
 clq430: x8 + x114 <= 1
 clq431: x2 + x24 <= 1
 clq432: x90 + x98 + x107 <= 1
 clq433: x24 + x53 <= 1
 clq434: x32 + x108 + x110 <= 1
 clq435: x62 + x102 <= 1
 clq436: x46 + x85 + x86 <= 1
 clq437: x39 + x116 + x134 <= 1
 clq438: x81 + x106 + x117 <= 1
 clq439: x14 + x29 + x45 <= 1
 clq440: x32 + x37 + x74 <= 1
 clq441: x10 + x88 + x121 <= 1
 clq442: x94 + x133 <= 1
 clq443: x13 + x126 <= 1
 clq444: x87 + x95 + x138 <= 1
 clq445: x25 + x75 + x145 <= 1
 clq446: x93 + x148 <= 1
 clq447: x112 + x130 + x140 <= 1
 clq448: x39 + x84 <= 1
 clq449: x70 + x80 + x96 <= 1
 clq450: x20 + x28 + x101 + x113 <= 1
 clq451: x14 + x45 + x75 <= 1
 clq452: x18 + x37 <= 1
 clq453: x45 + x88 <= 1
 clq454: x2 + x6 + x58 <= 1
 clq455: x82 + x145 <= 1
 clq456: x59 + x82 + x138 <= 1
 clq457: x25 + x52 + x99 <= 1
 clq458: x25 + x54 + x55 <= 1
 clq459: x21 + x42 + x54 <= 1
 clq460: x116 + x123 + x143 <= 1
 clq461: x48 + x51 <= 1
 clq462: x29 + x106 + x150 <= 1
 clq463: x58 + x64 + x108 <= 1
 clq464: x9 + x65 + x148 <= 1
 clq465: x61 + x137 <= 1
 clq466: x57 + x89 <= 1
 clq467: x39 + x88 + x134 <= 1
 clq468: x37 + x129 + x148 <= 1
 clq469: x72 + x101 <= 1
 clq470: x7 + x30 + x111 <= 1
 clq471: x95 + x106 <= 1
 clq472: x3 + x51 <= 1
 clq473: x100 + x103 <= 1
 clq474: x40 + x107 + x149 <= 1
 clq475: x47 + x72 + x115 <= 1
 clq476: x13 + x81 <= 1
 clq477: x49 + x120 + x142 <= 1
 clq478: x83 + x108 + x130 <= 1
 clq479: x54 + x65 <= 1
 clq480: x8 + x26 <= 1
 clq481: x58 + x81 + x132 <= 1
 clq482: x9 + x115 + x127 <= 1
 clq483: x32 + x128 <= 1
 clq484: x16 + x67 <= 1
 clq485: x46 + x86 + x92 <= 1
 clq486: x65 + x113 <= 1
 clq487: x100 + x139 + x149 <= 1
 clq488: x32 + x102 <= 1
 clq489: x24 + x32 + x88 <= 1
 clq490: x39 + x54 + x116 <= 1
 clq491: x16 + x64 + x102 <= 1
 clq492: x37 + x98 <= 1
 clq493: x2 + x70 + x74 <= 1
 clq494: x41 + x103 <= 1
 clq495: x92 + x101 <= 1
 clq496: x36 + x38 + x84 <= 1
 clq497: x57 + x68 <= 1
 clq498: x38 + x102 <= 1
 clq499: x14 + x73 + x75 <= 1
 clq500: x6 + x40 + x55 <= 1
 clq501: x21 + x73 + x80 <= 1
 clq502: x94 + x120 + x130 <= 1
 clq503: x46 + x94 + x98 <= 1
 clq504: x17 + x147 <= 1
 clq505: x43 + x148 <= 1
 clq506: x31 + x56 + x63 + x124 <= 1
 clq507: x77 + x105 + x118 <= 1
 clq508: x37 + x86 <= 1
 clq509: x31 + x32 <= 1
 clq510: x19 + x139 <= 1
 clq511: x30 + x97 + x118 <= 1
 clq512: x15 + x116 <= 1
 clq513: x78 + x115 + x127 <= 1
 clq514: x4 + x47 <= 1
 clq515: x1 + x102 <= 1
 clq516: x31 + x84 <= 1
 clq517: x34 + x102 + x111 <= 1
 clq518: x84 + x112 <= 1
 clq519: x100 + x105 + x120 <= 1
 clq520: x9 + x59 + x117 <= 1
 clq521: x2 + x134 <= 1
 clq522: x17 + x102 <= 1
 clq523: x41 + x67 <= 1
 clq524: x15 + x66 + x71 <= 1
 clq525: x93 + x101 + x113 <= 1
 clq526: x16 + x34 + x118 <= 1
 clq527: x24 + x88 + x130 <= 1
 clq528: x14 + x24 <= 1
 clq529: x102 + x148 <= 1
 clq530: x128 + x133 <= 1
 clq531: x22 + x78 + x143 <= 1
 clq532: x25 + x47 + x136 <= 1
 clq533: x91 + x102 + x134 <= 1
 clq534: x73 + x74 <= 1
 clq535: x39 + x81 + x134 <= 1
 clq536: x58 + x104 + x150 <= 1
 clq537: x82 + x96 <= 1
 clq538: x95 + x102 <= 1
 clq539: x52 + x89 <= 1
 clq540: x7 + x26 <= 1
 clq541: x26 + x93 <= 1
 clq542: x78 + x113 + x143 <= 1
 clq543: x54 + x83 <= 1
 clq544: x75 + x89 <= 1
 clq545: x34 + x48 + x111 <= 1
 clq546: x27 + x96 + x122 <= 1
 clq547: x105 + x128 <= 1
 clq548: x30 + x39 + x82 <= 1
 clq549: x22 + x68 <= 1
 clq550: x33 + x92 <= 1
 clq551: x71 + x75 <= 1
 clq552: x102 + x143 <= 1
 clq553: x21 + x36 + x42 <= 1
 clq554: x20 + x39 + x134 <= 1
 clq555: x9 + x66 <= 1
 clq556: x25 + x88 <= 1
 clq557: x10 + x88 + x112 <= 1
 clq558: x58 + x107 + x120 <= 1
 clq559: x15 + x92 <= 1
 clq560: x48 + x64 <= 1
 clq561: x108 + x113 + x146 <= 1
 clq562: x21 + x133 <= 1
 clq563: x49 + x56 + x110 <= 1
 clq564: x21 + x31 + x116 <= 1
 clq565: x25 + x66 <= 1
 clq566: x27 + x114 <= 1
 clq567: x118 + x131 + x146 <= 1
 clq568: x12 + x72 + x118 <= 1
 clq569: x42 + x104 <= 1
 clq570: x16 + x63 + x64 <= 1
 clq571: x21 + x125 <= 1
 clq572: x120 + x124 + x130 <= 1
 clq573: x48 + x53 <= 1
 clq574: x1 + x106 + x117 <= 1
 clq575: x30 + x111 + x141 <= 1
 clq576: x17 + x80 <= 1
 clq577: x120 + x144 + x149 <= 1
 clq578: x26 + x57 + x104 <= 1
 clq579: x60 + x118 + x144 <= 1
 clq580: x12 + x89 <= 1
 clq581: x65 + x144 <= 1
 clq582: x28 + x149 <= 1
 clq583: x23 + x26 + x90 <= 1
 clq584: x31 + x148 <= 1
 clq585: x25 + x37 + x148 <= 1
 clq586: x44 + x48 <= 1
 clq587: x75 + x97 + x145 <= 1
 clq588: x19 + x106 <= 1
 clq589: x90 + x106 + x143 <= 1
 clq590: x14 + x73 + x99 <= 1
 clq591: x2 + x147 <= 1
 clq592: x48 + x95 <= 1
 clq593: x4 + x34 + x90 <= 1
 clq594: x41 + x44 + x56 <= 1
 clq595: x21 + x33 + x73 <= 1
 clq596: x91 + x93 <= 1
 clq597: x36 + x124 <= 1
 clq598: x85 + x123 + x149 <= 1
 clq599: x27 + x95 + x144 <= 1
 clq600: x42 + x98 + x107 <= 1
 clq601: x100 + x145 <= 1
 clq602: x39 + x68 <= 1
 clq603: x15 + x72 <= 1
 clq604: x24 + x32 + x42 <= 1
 clq605: x6 + x47 + x63 <= 1
 clq606: x88 + x112 + x130 <= 1
 clq607: x49 + x72 <= 1
 clq608: x108 + x147 <= 1
 clq609: x1 + x23 + x126 <= 1
 clq610: x29 + x72 <= 1
 clq611: x10 + x144 <= 1
 clq612: x35 + x59 + x113 <= 1
 clq613: x60 + x100 + x133 <= 1
 clq614: x21 + x105 <= 1
 clq615: x29 + x106 + x136 <= 1
 clq616: x16 + x56 + x110 <= 1
 clq617: x97 + x139 <= 1
 clq618: x23 + x103 <= 1
 clq619: x35 + x88 + x122 <= 1
 clq620: x12 + x35 + x59 <= 1
 clq621: x21 + x46 + x66 <= 1
 clq622: x70 + x74 + x110 <= 1
 clq623: x105 + x107 + x120 <= 1
 clq624: x35 + x53 + x97 <= 1
 clq625: x134 + x140 <= 1
 clq626: x11 + x52 + x65 <= 1
 clq627: x50 + x119 <= 1
 clq628: x11 + x24 + x130 <= 1
 clq629: x16 + x64 + x104 <= 1
 clq630: x25 + x127 <= 1
 clq631: x60 + x96 + x100 <= 1
 clq632: x78 + x83 + x109 <= 1
 clq633: x19 + x69 + x83 + x104 <= 1
 clq634: x58 + x104 + x120 + x132 <= 1
 clq635: x55 + x103 + x142 <= 1
 clq636: x19 + x141 + x145 <= 1
 clq637: x10 + x31 + x121 <= 1
 clq638: x70 + x108 + x110 <= 1
 clq639: x105 + x118 + x146 <= 1
 clq640: x69 + x116 + x143 <= 1
 clq641: x22 + x73 + x98 <= 1
 clq642: x90 + x138 <= 1
 clq643: x85 + x96 + x102 <= 1
 clq644: x33 + x72 + x118 <= 1
 clq645: x50 + x58 <= 1
 clq646: x96 + x112 <= 1
 clq647: x55 + x134 <= 1
 clq648: x94 + x103 <= 1
 clq649: x21 + x43 + x80 <= 1
 clq650: x62 + x76 <= 1
 clq651: x47 + x59 + x106 <= 1
 clq652: x47 + x48 <= 1
 clq653: x94 + x137 <= 1
 clq654: x44 + x86 + x92 <= 1
 clq655: x52 + x72 <= 1
 clq656: x35 + x115 + x140 <= 1
 clq657: x24 + x116 <= 1
 clq658: x47 + x106 + x135 <= 1
 clq659: x33 + x77 + x114 <= 1
 clq660: x18 + x90 + x141 <= 1
 clq661: x42 + x76 <= 1
 clq662: x35 + x36 + x115 <= 1
 clq663: x72 + x145 <= 1
 clq664: x18 + x92 <= 1
 clq665: x73 + x118 + x146 <= 1
 clq666: x55 + x70 + x142 <= 1
 clq667: x10 + x127 <= 1
 clq668: x13 + x144 + x146 <= 1
 clq669: x32 + x89 <= 1
 clq670: x17 + x22 + x84 <= 1
 clq671: x29 + x31 <= 1
 clq672: x35 + x59 + x148 <= 1
 clq673: x56 + x70 + x110 <= 1
 clq674: x41 + x131 + x150 <= 1
 clq675: x39 + x115 <= 1
 clq676: x118 + x126 + x130 <= 1
 clq677: x70 + x110 + x125 <= 1
 clq678: x33 + x114 + x132 <= 1
 clq679: x25 + x128 + x136 <= 1
 clq680: x55 + x80 + x115 <= 1
 clq681: x40 + x53 <= 1
 clq682: x135 + x146 <= 1
 clq683: x50 + x57 + x141 <= 1
 clq684: x78 + x79 <= 1
 clq685: x58 + x145 <= 1
 clq686: x39 + x61 + x110 <= 1
 clq687: x70 + x145 <= 1
 clq688: x26 + x146 <= 1
 clq689: x86 + x87 + x103 <= 1
 clq690: x38 + x83 + x109 <= 1
 clq691: x33 + x39 <= 1
 clq692: x52 + x65 + x121 <= 1
 clq693: x19 + x83 + x104 + x132 <= 1
 clq694: x61 + x120 <= 1
 clq695: x3 + x29 <= 1
 clq696: x24 + x100 + x139 <= 1
 clq697: x8 + x80 <= 1
 clq698: x97 + x106 <= 1
Bounds
 0 <= x1 <= 1
 0 <= x2 <= 1
 0 <= x3 <= 1
 0 <= x4 <= 1
 0 <= x5 <= 1
 0 <= x6 <= 1
 0 <= x7 <= 1
 0 <= x8 <= 1
 0 <= x9 <= 1
 0 <= x10 <= 1
 0 <= x11 <= 1
 0 <= x12 <= 1
 0 <= x13 <= 1
 0 <= x14 <= 1
 0 <= x15 <= 1
 0 <= x16 <= 1
 0 <= x17 <= 1
 0 <= x18 <= 1
 0 <= x19 <= 1
 0 <= x20 <= 1
 0 <= x21 <= 1
 0 <= x22 <= 1
 0 <= x23 <= 1
 0 <= x24 <= 1
 0 <= x25 <= 1
 0 <= x26 <= 1
 0 <= x27 <= 1
 0 <= x28 <= 1
 0 <= x29 <= 1
 0 <= x30 <= 1
 0 <= x31 <= 1
 0 <= x32 <= 1
 0 <= x33 <= 1
 0 <= x34 <= 1
 0 <= x35 <= 1
 0 <= x36 <= 1
 0 <= x37 <= 1
 0 <= x38 <= 1
 0 <= x39 <= 1
 0 <= x40 <= 1
 0 <= x41 <= 1
 0 <= x42 <= 1
 0 <= x43 <= 1
 0 <= x44 <= 1
 0 <= x45 <= 1
 0 <= x46 <= 1
 0 <= x47 <= 1
 0 <= x48 <= 1
 0 <= x49 <= 1
 0 <= x50 <= 1
 0 <= x51 <= 1
 0 <= x52 <= 1
 0 <= x53 <= 1
 0 <= x54 <= 1
 0 <= x55 <= 1
 0 <= x56 <= 1
 0 <= x57 <= 1
 0 <= x58 <= 1
 0 <= x59 <= 1
 0 <= x60 <= 1
 0 <= x61 <= 1
 0 <= x62 <= 1
 0 <= x63 <= 1
 0 <= x64 <= 1
 0 <= x65 <= 1
 0 <= x66 <= 1
 0 <= x67 <= 1
 0 <= x68 <= 1
 0 <= x69 <= 1
 0 <= x70 <= 1
 0 <= x71 <= 1
 0 <= x72 <= 1
 0 <= x73 <= 1
 0 <= x74 <= 1
 0 <= x75 <= 1
 0 <= x76 <= 1
 0 <= x77 <= 1
 0 <= x78 <= 1
 0 <= x79 <= 1
 0 <= x80 <= 1
 0 <= x81 <= 1
 0 <= x82 <= 1
 0 <= x83 <= 1
 0 <= x84 <= 1
 0 <= x85 <= 1
 0 <= x86 <= 1
 0 <= x87 <= 1
 0 <= x88 <= 1
 0 <= x89 <= 1
 0 <= x90 <= 1
 0 <= x91 <= 1
 0 <= x92 <= 1
 0 <= x93 <= 1
 0 <= x94 <= 1
 0 <= x95 <= 1
 0 <= x96 <= 1
 0 <= x97 <= 1
 0 <= x98 <= 1
 0 <= x99 <= 1
 0 <= x100 <= 1
 0 <= x101 <= 1
 0 <= x102 <= 1
 0 <= x103 <= 1
 0 <= x104 <= 1
 0 <= x105 <= 1
 0 <= x106 <= 1
 0 <= x107 <= 1
 0 <= x108 <= 1
 0 <= x109 <= 1
 0 <= x110 <= 1
 0 <= x111 <= 1
 0 <= x112 <= 1
 0 <= x113 <= 1
 0 <= x114 <= 1
 0 <= x115 <= 1
 0 <= x116 <= 1
 0 <= x117 <= 1
 0 <= x118 <= 1
 0 <= x119 <= 1
 0 <= x120 <= 1
 0 <= x121 <= 1
 0 <= x122 <= 1
 0 <= x123 <= 1
 0 <= x124 <= 1
 0 <= x125 <= 1
 0 <= x126 <= 1
 0 <= x127 <= 1
 0 <= x128 <= 1
 0 <= x129 <= 1
 0 <= x130 <= 1
 0 <= x131 <= 1
 0 <= x132 <= 1
 0 <= x133 <= 1
 0 <= x134 <= 1
 0 <= x135 <= 1
 0 <= x136 <= 1
 0 <= x137 <= 1
 0 <= x138 <= 1
 0 <= x139 <= 1
 0 <= x140 <= 1
 0 <= x141 <= 1
 0 <= x142 <= 1
 0 <= x143 <= 1
 0 <= x144 <= 1
 0 <= x145 <= 1
 0 <= x146 <= 1
 0 <= x147 <= 1
 0 <= x148 <= 1
 0 <= x149 <= 1
 0 <= x150 <= 1
Binaries
 x1  x2  x3  x4  x5  x6  x7  x8  x9  x10  x11  x12  x13  x14  x15  x16  x17 
 x18  x19  x20  x21  x22  x23  x24  x25  x26  x27  x28  x29  x30  x31  x32 
 x33  x34  x35  x36  x37  x38  x39  x40  x41  x42  x43  x44  x45  x46  x47 
 x48  x49  x50  x51  x52  x53  x54  x55  x56  x57  x58  x59  x60  x61  x62 
 x63  x64  x65  x66  x67  x68  x69  x70  x71  x72  x73  x74  x75  x76  x77 
 x78  x79  x80  x81  x82  x83  x84  x85  x86  x87  x88  x89  x90  x91  x92 
 x93  x94  x95  x96  x97  x98  x99  x100  x101  x102  x103  x104  x105  x106 
 x107  x108  x109  x110  x111  x112  x113  x114  x115  x116  x117  x118  x119 
 x120  x121  x122  x123  x124  x125  x126  x127  x128  x129  x130  x131  x132 
 x133  x134  x135  x136  x137  x138  x139  x140  x141  x142  x143  x144  x145 
 x146  x147  x148  x149  x150 
End
